Li1 Cl1
1.0
   3.1134512700000001   -0.0000000000000000    1.7975511399999999
   1.0378170900000001    2.9353897400000002    1.7975511399999999
  -0.0000000000000000   -0.0000000000000000    3.5951042800000002
Li Cl
1 1
direct
  -0.0000000000000000   -0.0000000000000000    0.0000000000000000 Li
   0.5000000000000000    0.5000000000000000    0.5000000000000000 Cl
